
Gurobi 10.0.0 (win64) logging started Mon Mar 13 20:06:25 2023

Set parameter LogFile to value "logFiles/N-1L-75D/N-1L-6U-21F-18V-75D-c-basic.log"
Gurobi Optimizer version 10.0.0 build v10.0.0rc2 (win64)

CPU model: Intel(R) Core(TM) i5-10210U CPU @ 1.60GHz, instruction set [SSE2|AVX|AVX2]
Thread count: 4 physical cores, 8 logical processors, using up to 8 threads

Optimize a model with 16838 rows, 87946 columns and 658918 nonzeros
Model fingerprint: 0x645b0b1f
Variable types: 532 continuous, 87414 integer (87414 binary)
Coefficient statistics:
  Matrix range     [1e+00, 2e+05]
  Objective range  [4e+01, 2e+07]
  Bounds range     [1e+00, 1e+00]
  RHS range        [1e+00, 1e+06]
Presolve removed 11655 rows and 36486 columns
Presolve time: 0.25s

Explored 0 nodes (0 simplex iterations) in 0.45 seconds (0.28 work units)
Thread count was 1 (of 8 available processors)

Solution count 0

Model is infeasible or unbounded
Best objective -, best bound -, gap -

Gurobi 10.0.0 (win64) logging started Mon Mar 13 20:07:53 2023

Set parameter LogFile to value "logFiles/N-1L-75D/N-1L-6U-21F-18V-75D-c-basic.log"
Gurobi Optimizer version 10.0.0 build v10.0.0rc2 (win64)

CPU model: Intel(R) Core(TM) i5-10210U CPU @ 1.60GHz, instruction set [SSE2|AVX|AVX2]
Thread count: 4 physical cores, 8 logical processors, using up to 8 threads

Optimize a model with 16838 rows, 87946 columns and 658918 nonzeros
Model fingerprint: 0xaebd971f
Variable types: 532 continuous, 87414 integer (87414 binary)
Coefficient statistics:
  Matrix range     [1e+00, 2e+05]
  Objective range  [4e+01, 2e+07]
  Bounds range     [1e+00, 1e+00]
  RHS range        [1e+00, 1e+06]
Presolve removed 11655 rows and 36486 columns
Presolve time: 0.20s

Explored 0 nodes (0 simplex iterations) in 0.41 seconds (0.28 work units)
Thread count was 1 (of 8 available processors)

Solution count 0

Model is infeasible or unbounded
Best objective -, best bound -, gap -
IIS computation: initial model status unknown, solving to determine model status
Presolve removed 11655 rows and 36486 columns
Presolve time: 0.19s

Explored 0 nodes (0 simplex iterations) in 0.45 seconds (0.28 work units)
Thread count was 1 (of 8 available processors)

Solution count 0
No other solutions better than -1e+100

Model is infeasible
Best objective -, best bound -, gap -

Computing Irreducible Inconsistent Subsystem (IIS)...

           Constraints          |            Bounds           |  Runtime
      Min       Max     Guess   |   Min       Max     Guess   |
--------------------------------------------------------------------------
        0      6824         -         0       532         -           0s
        2         2         2         0         0         0           1s

IIS computed: 2 constraints, 0 bounds
IIS runtime: 1.04 seconds (0.43 work units)

Gurobi 10.0.0 (win64) logging started Mon Mar 13 20:12:05 2023

Set parameter LogFile to value "logFiles/N-1L-75D/N-1L-6U-21F-18V-75D-c-basic.log"
Gurobi Optimizer version 10.0.0 build v10.0.0rc2 (win64)

CPU model: Intel(R) Core(TM) i5-10210U CPU @ 1.60GHz, instruction set [SSE2|AVX|AVX2]
Thread count: 4 physical cores, 8 logical processors, using up to 8 threads

Optimize a model with 16838 rows, 87946 columns and 658918 nonzeros
Model fingerprint: 0x7e166743
Variable types: 532 continuous, 87414 integer (87414 binary)
Coefficient statistics:
  Matrix range     [1e+00, 2e+05]
  Objective range  [4e+01, 2e+07]
  Bounds range     [1e+00, 1e+00]
  RHS range        [1e+00, 1e+06]
Presolve removed 13205 rows and 24421 columns
Presolve time: 1.31s
Presolved: 3633 rows, 63525 columns, 418288 nonzeros
Variable types: 544 continuous, 62981 integer (62981 binary)
Deterministic concurrent LP optimizer: primal and dual simplex
Showing first log only...


Root simplex log...

Iteration    Objective       Primal Inf.    Dual Inf.      Time
   49726    6.8973956e+08   0.000000e+00   2.896023e+08      5s
   54808    6.9018679e+08   0.000000e+00   0.000000e+00      5s
Concurrent spin time: 0.39s

Solved with primal simplex
   54808    6.9018679e+08   0.000000e+00   0.000000e+00      6s

Root relaxation: objective 6.901868e+08, 54808 iterations, 4.28 seconds (3.57 work units)

    Nodes    |    Current Node    |     Objective Bounds      |     Work
 Expl Unexpl |  Obj  Depth IntInf | Incumbent    BestBd   Gap | It/Node Time

     0     0 6.9019e+08    0   80          - 6.9019e+08      -     -    6s
H    0     0                    6.770564e+08 6.9019e+08  1.94%     -   15s
H    0     0                    6.798250e+08 6.9019e+08  1.52%     -   19s
H    0     0                    6.836346e+08 6.9019e+08  0.96%     -   20s
     0     0 6.9018e+08    0   28 6.8363e+08 6.9018e+08  0.96%     -   20s
H    0     0                    6.836625e+08 6.9018e+08  0.95%     -   32s
     0     0 6.9018e+08    0   32 6.8366e+08 6.9018e+08  0.95%     -   32s
     0     0 6.9018e+08    0   34 6.8366e+08 6.9018e+08  0.95%     -   33s
     0     0 6.9018e+08    0   40 6.8366e+08 6.9018e+08  0.95%     -   33s
     0     0 6.9018e+08    0   37 6.8366e+08 6.9018e+08  0.95%     -   34s
     0     0 6.9018e+08    0   40 6.8366e+08 6.9018e+08  0.95%     -   34s
     0     0 6.9018e+08    0   40 6.8366e+08 6.9018e+08  0.95%     -   35s
     0     0 6.9018e+08    0   31 6.8366e+08 6.9018e+08  0.95%     -   35s
     0     0 6.9018e+08    0   33 6.8366e+08 6.9018e+08  0.95%     -   36s
     0     0 6.9018e+08    0   34 6.8366e+08 6.9018e+08  0.95%     -   37s
     0     0 6.9018e+08    0   33 6.8366e+08 6.9018e+08  0.95%     -   37s
     0     2 6.9014e+08    0   33 6.8366e+08 6.9014e+08  0.95%     -   43s
    15    20 6.9014e+08    5   80 6.8366e+08 6.9014e+08  0.95%  43.3   45s
    73   183 6.9014e+08   16   42 6.8366e+08 6.9014e+08  0.95%  36.4   52s
   182   192 6.9014e+08   37   43 6.8366e+08 6.9014e+08  0.95%  28.1   60s
H  183   192                    6.837032e+08 6.9014e+08  0.94%  28.0   60s
   191   196 6.9014e+08   38   33 6.8370e+08 6.9014e+08  0.94%  28.5   65s
H  192   196                    6.844088e+08 6.9014e+08  0.84%  28.4   65s

Cutting planes:
  Implied bound: 3
  MIR: 9
  Flow cover: 14
  GUB cover: 5
  Zero half: 1
  RLT: 1

Explored 195 nodes (62605 simplex iterations) in 65.40 seconds (62.92 work units)
Thread count was 8 (of 8 available processors)

Solution count 6: 6.84409e+08 6.83703e+08 6.83663e+08 ... 6.77056e+08

Solve interrupted
Best objective 6.844087718541e+08, best bound 6.901418555640e+08, gap 0.8377%
